formal_verification/runs/model_eval_v7_100/case_037/run/model/design_smt2.smt2
; SMT-LIBv2 description generated by Yosys 0.64+40 (git sha1 90b906c4f, clang++ 18.1.8 -fPIC -O3)
; yosys-smt2-module vert_formal_wrap
(declare-sort |vert_formal_wrap_s| 0)
(declare-fun |vert_formal_wrap_is| (|vert_formal_wrap_s|) Bool)
; yosys-smt2-wire auth_13 32
(define-fun |vert_formal_wrap_n auth_13| ((state |vert_formal_wrap_s|)) (_ BitVec 32) #b00000000000000000000000000000000)
; yosys-smt2-wire auth_14 32
(define-fun |vert_formal_wrap_n auth_14| ((state |vert_formal_wrap_s|)) (_ BitVec 32) #b00000000000000000000000000000000)
; yosys-smt2-wire b0xxx010 32
(define-fun |vert_formal_wrap_n b0xxx010| ((state |vert_formal_wrap_s|)) (_ BitVec 32) #b00000000000000000000000000000000)
; yosys-smt2-wire b1010x 32
(define-fun |vert_formal_wrap_n b1010x| ((state |vert_formal_wrap_s|)) (_ BitVec 32) #b00000000000000000000000000000000)
; yosys-smt2-wire b111111x 32
(define-fun |vert_formal_wrap_n b111111x| ((state |vert_formal_wrap_s|)) (_ BitVec 32) #b00000000000000000000000000000000)
; yosys-smt2-wire cfg_12 32
(define-fun |vert_formal_wrap_n cfg_12| ((state |vert_formal_wrap_s|)) (_ BitVec 32) #b00000000000000000000000000000000)
; yosys-smt2-wire control_flag_register_3 32
(define-fun |vert_formal_wrap_n control_flag_register_3| ((state |vert_formal_wrap_s|)) (_ BitVec 32) #b00000000000000000000000000000000)
; yosys-smt2-wire h6e 32
(define-fun |vert_formal_wrap_n h6e| ((state |vert_formal_wrap_s|)) (_ BitVec 32) #b00000000000000000000000000000000)
; yosys-smt2-wire rst 1
(define-fun |vert_formal_wrap_n rst| ((state |vert_formal_wrap_s|)) Bool false)
; yosys-smt2-wire rst_3 32
(define-fun |vert_formal_wrap_n rst_3| ((state |vert_formal_wrap_s|)) (_ BitVec 32) #b00000000000000000000000000000000)
; yosys-smt2-wire tx_18 32
(define-fun |vert_formal_wrap_n tx_18| ((state |vert_formal_wrap_s|)) (_ BitVec 32) #b00000000000000000000000000000000)
; yosys-smt2-assert 0 _witness_.check_assert_vert_formal_wrap_sv_57_4 vert_formal_wrap.sv:57.5-57.82
(define-fun |vert_formal_wrap_a 0| ((state |vert_formal_wrap_s|)) Bool (or true (not true))) ; _witness_.check_assert_vert_formal_wrap_sv_57_4
; yosys-smt2-assert 1 _witness_.check_assert_vert_formal_wrap_sv_58_9 vert_formal_wrap.sv:58.5-58.83
(define-fun |vert_formal_wrap_a 1| ((state |vert_formal_wrap_s|)) Bool (or true (not true))) ; _witness_.check_assert_vert_formal_wrap_sv_58_9
; yosys-smt2-assert 2 _witness_.check_assert_vert_formal_wrap_sv_59_14 vert_formal_wrap.sv:59.5-59.85
(define-fun |vert_formal_wrap_a 2| ((state |vert_formal_wrap_s|)) Bool (or true (not true))) ; _witness_.check_assert_vert_formal_wrap_sv_59_14
; yosys-smt2-assert 3 _witness_.check_assert_vert_formal_wrap_sv_60_19 vert_formal_wrap.sv:60.5-60.85
(define-fun |vert_formal_wrap_a 3| ((state |vert_formal_wrap_s|)) Bool (or true (not true))) ; _witness_.check_assert_vert_formal_wrap_sv_60_19
; yosys-smt2-assume 0 _witness_.check_assume_vert_formal_wrap_sv_56_2 vert_formal_wrap.sv:56.5-56.18
(define-fun |vert_formal_wrap_u 0| ((state |vert_formal_wrap_s|)) Bool (or true (not true))) ; _witness_.check_assume_vert_formal_wrap_sv_56_2
(define-fun |vert_formal_wrap_a| ((state |vert_formal_wrap_s|)) Bool (and
  (|vert_formal_wrap_a 0| state)
  (|vert_formal_wrap_a 1| state)
  (|vert_formal_wrap_a 2| state)
  (|vert_formal_wrap_a 3| state)
))
(define-fun |vert_formal_wrap_u| ((state |vert_formal_wrap_s|)) Bool 
  (|vert_formal_wrap_u 0| state)
)
(define-fun |vert_formal_wrap_i| ((state |vert_formal_wrap_s|)) Bool true)
(define-fun |vert_formal_wrap_h| ((state |vert_formal_wrap_s|)) Bool true)
(define-fun |vert_formal_wrap_t| ((state |vert_formal_wrap_s|) (next_state |vert_formal_wrap_s|)) Bool true) ; end of module vert_formal_wrap
; yosys-smt2-topmod vert_formal_wrap
; end of yosys output
